
Starting CP-SAT solver v9.15.6755
Parameters: random_seed: 2026074472 max_time_in_seconds: 6939.9999994026666 log_search_progress: true cp_model_presolve: true linearization_level: 2 num_search_workers: 4 cp_model_probing_level: 2 symmetry_level: 2

Initial satisfaction model '': (model_fingerprint: 0xddc9b336b0b15fa5)
#Variables: 724 (608 primary variables)
  - 724 Booleans in [0,1]
#kBoolAnd: 110 (#enforced: 110) (#literals: 330)
#kBoolOr: 110 (#enforced: 110) (#literals: 220)
#kExactlyOne: 87 (#literals: 261)
#kLinear1: 32 (#enforced: 6)
#kLinear2: 336 (#enforced: 336) (#complex_domain: 110)
#kLinear3: 1'600 (#enforced: 6)
#kLinearN: 1'132 (#enforced: 243) (#terms: 9'111)

Starting presolve at 0.00s
  7.22e-04s  0.00e+00d  [DetectDominanceRelations] 
  8.92e-03s  0.00e+00d  [PresolveToFixPoint] #num_loops=3 #num_dual_strengthening=1 
  3.70e-05s  0.00e+00d  [ExtractEncodingFromLinear] #potential_supersets=91 
  2.98e-04s  0.00e+00d  [DetectDuplicateColumns] 
  1.05e-04s  0.00e+00d  [DetectDuplicateConstraints] #duplicates=5 
[Symmetry] Graph for symmetry has 4'871 nodes and 15'716 arcs.
[Symmetry] Symmetry computation done. time: 0.0012952 dtime: 0.00180722
[SAT presolve] num removable Booleans: 220 / 628
[SAT presolve] num trivial clauses: 0
[SAT presolve] [0s] clauses:2'740 literals:7'450 vars:507 one_side_vars:67 simple_definition:1 singleton_clauses:0
[SAT presolve] [0.000259308s] clauses:2'739 literals:7'443 vars:507 one_side_vars:67 simple_definition:1 singleton_clauses:0
[SAT presolve] [0.000721649s] clauses:2'254 literals:6'624 vars:381 one_side_vars:75 simple_definition:66 singleton_clauses:0
  1.24e-04s  0.00e+00d  [DetectDuplicateConstraintsWithDifferentEnforcements] #without_enforcements=6 
  5.72e-03s  2.40e-03d  [Probe] #probed=1'307 #fixed_bools=11 #equiv=7 #new_binary_clauses=1'269 
  4.86e-04s  3.40e-04d  [MaxClique] Merged 595 constraints with 1'353 literals into 503 constraints with 1'203 literals
  9.45e-04s  0.00e+00d  [DetectDominanceRelations] 
  3.20e-03s  0.00e+00d  [PresolveToFixPoint] #num_loops=1 #num_dual_strengthening=1 
  1.21e-03s  0.00e+00d  [ProcessAtMostOneAndLinear] 
  1.05e-04s  0.00e+00d  [DetectDuplicateConstraints] #duplicates=6 
  8.39e-05s  0.00e+00d  [DetectDuplicateConstraintsWithDifferentEnforcements] 
  2.46e-03s  8.44e-05d  [DetectDominatedLinearConstraints] #relevant_constraints=819 #num_inclusions=434 #num_redundant=7 
  1.33e-04s  0.00e+00d  [DetectDifferentVariables] 
  7.94e-04s  8.10e-05d  [ProcessSetPPC] #relevant_constraints=2'988 #num_inclusions=74 
  3.11e-04s  3.38e-05d  [TransformClausesToExactlyOne] #num_amos=511 #num_clauses=1'666 #num_checked=1'666 
  5.15e-05s  0.00e+00d  [DetectEncodedComplexDomains] 
  3.16e-05s  1.00e-07d  [FindAlmostIdenticalLinearConstraints] #num_tested_pairs=1 
  9.88e-04s  1.37e-03d  [FindBigAtMostOneAndLinearOverlap] 
  1.48e-03s  1.08e-03d  [FindBigVerticalLinearOverlap] #blocks=5 #saved_nz=206 
  3.29e-04s  5.54e-04d  [FindBigHorizontalLinearOverlap] #linears=453 
  3.33e-04s  2.68e-05d  [MergeClauses] #num_collisions=10 #num_merges=10 #num_saved_literals=50 
  9.29e-04s  0.00e+00d  [DetectDominanceRelations] 
  3.50e-03s  0.00e+00d  [PresolveToFixPoint] #num_loops=2 #num_dual_strengthening=1 
  9.14e-04s  0.00e+00d  [DetectDominanceRelations] 
  3.10e-03s  0.00e+00d  [PresolveToFixPoint] #num_loops=1 #num_dual_strengthening=1 
  1.68e-04s  0.00e+00d  [DetectDuplicateColumns] 
  9.02e-05s  0.00e+00d  [DetectDuplicateConstraints] 
[Symmetry] Graph for symmetry has 4'431 nodes and 13'626 arcs.
[Symmetry] Symmetry computation done. time: 0.00105369 dtime: 0.00140896
[SAT presolve] num removable Booleans: 93 / 498
[SAT presolve] num trivial clauses: 0
[SAT presolve] [0s] clauses:2'174 literals:6'415 vars:475 one_side_vars:156 simple_definition:85 singleton_clauses:0
[SAT presolve] [0.000232447s] clauses:2'169 literals:6'233 vars:475 one_side_vars:196 simple_definition:75 singleton_clauses:0
[SAT presolve] [0.000326317s] clauses:2'158 literals:6'222 vars:469 one_side_vars:198 simple_definition:57 singleton_clauses:0
  1.53e-04s  0.00e+00d  [DetectDuplicateConstraintsWithDifferentEnforcements] 
  6.24e-03s  2.21e-03d  [Probe] #probed=1'326 #new_binary_clauses=912 
  5.14e-04s  4.43e-04d  [MaxClique] Merged 528 constraints with 1'185 literals into 522 constraints with 1'183 literals
  9.40e-04s  0.00e+00d  [DetectDominanceRelations] 
  3.17e-03s  0.00e+00d  [PresolveToFixPoint] #num_loops=1 #num_dual_strengthening=1 
  1.12e-03s  0.00e+00d  [ProcessAtMostOneAndLinear] 
  1.03e-04s  0.00e+00d  [DetectDuplicateConstraints] 
  8.86e-05s  0.00e+00d  [DetectDuplicateConstraintsWithDifferentEnforcements] 
  7.38e-04s  5.29e-05d  [DetectDominatedLinearConstraints] #relevant_constraints=803 #num_inclusions=281 
  1.24e-04s  0.00e+00d  [DetectDifferentVariables] 
  8.03e-04s  7.08e-05d  [ProcessSetPPC] #relevant_constraints=3'066 #num_inclusions=91 
  3.15e-04s  3.38e-05d  [TransformClausesToExactlyOne] #num_amos=519 #num_clauses=1'688 #num_checked=1'688 
  1.69e-04s  0.00e+00d  [DetectEncodedComplexDomains] 
  3.88e-05s  9.00e-08d  [FindAlmostIdenticalLinearConstraints] #num_tested_pairs=1 
  8.91e-04s  1.09e-03d  [FindBigAtMostOneAndLinearOverlap] 
  1.28e-03s  9.60e-04d  [FindBigVerticalLinearOverlap] 
  3.38e-04s  5.54e-04d  [FindBigHorizontalLinearOverlap] #linears=453 
  3.69e-04s  2.63e-05d  [MergeClauses] #num_collisions=73 #num_merges=73 #num_saved_literals=212 
  9.41e-04s  0.00e+00d  [DetectDominanceRelations] 
  3.14e-03s  0.00e+00d  [PresolveToFixPoint] #num_loops=1 #num_dual_strengthening=1 
  9.26e-04s  0.00e+00d  [DetectDominanceRelations] 
  3.13e-03s  0.00e+00d  [PresolveToFixPoint] #num_loops=1 #num_dual_strengthening=1 
  1.64e-04s  0.00e+00d  [DetectDuplicateColumns] 
  9.90e-05s  0.00e+00d  [DetectDuplicateConstraints] 
[Symmetry] Graph for symmetry has 4'342 nodes and 13'228 arcs.
[Symmetry] Symmetry computation done. time: 0.00100356 dtime: 0.0013303
[SAT presolve] num removable Booleans: 87 / 492
[SAT presolve] num trivial clauses: 0
[SAT presolve] [0s] clauses:2'148 literals:6'189 vars:469 one_side_vars:202 simple_definition:57 singleton_clauses:0
[SAT presolve] [0.000219949s] clauses:2'148 literals:6'189 vars:469 one_side_vars:202 simple_definition:57 singleton_clauses:0
[SAT presolve] [0.000290875s] clauses:2'148 literals:6'189 vars:469 one_side_vars:202 simple_definition:57 singleton_clauses:0
  1.63e-04s  0.00e+00d  [DetectDuplicateConstraintsWithDifferentEnforcements] 
  5.96e-03s  2.20e-03d  [Probe] #probed=1'326 #new_binary_clauses=912 
  4.80e-04s  4.36e-04d  [MaxClique] 
  9.59e-04s  0.00e+00d  [DetectDominanceRelations] 
  3.24e-03s  0.00e+00d  [PresolveToFixPoint] #num_loops=1 #num_dual_strengthening=1 
  1.13e-03s  0.00e+00d  [ProcessAtMostOneAndLinear] 
  9.97e-05s  0.00e+00d  [DetectDuplicateConstraints] 
  9.24e-05s  0.00e+00d  [DetectDuplicateConstraintsWithDifferentEnforcements] 
  7.48e-04s  5.29e-05d  [DetectDominatedLinearConstraints] #relevant_constraints=803 #num_inclusions=281 
  1.25e-04s  0.00e+00d  [DetectDifferentVariables] 
  7.92e-04s  7.06e-05d  [ProcessSetPPC] #relevant_constraints=3'062 #num_inclusions=87 
  3.36e-04s  3.38e-05d  [TransformClausesToExactlyOne] #num_amos=518 #num_clauses=1'688 #num_checked=1'688 
  1.46e-04s  0.00e+00d  [DetectEncodedComplexDomains] 
  4.22e-05s  9.00e-08d  [FindAlmostIdenticalLinearConstraints] #num_tested_pairs=1 
  9.06e-04s  1.09e-03d  [FindBigAtMostOneAndLinearOverlap] 
  1.28e-03s  9.30e-04d  [FindBigVerticalLinearOverlap] #blocks=1 #saved_nz=34 
  3.40e-04s  5.25e-04d  [FindBigHorizontalLinearOverlap] #linears=451 
  3.48e-04s  2.63e-05d  [MergeClauses] #num_collisions=73 #num_merges=73 #num_saved_literals=212 
  9.57e-04s  0.00e+00d  [DetectDominanceRelations] 
  3.31e-03s  0.00e+00d  [PresolveToFixPoint] #num_loops=2 #num_dual_strengthening=1 
  2.18e-05s  0.00e+00d  [MergeNoOverlap] 
  2.08e-05s  0.00e+00d  [MergeNoOverlap2D] 

Presolve summary:
  - 36 affine relations were detected.
  - rule 'TODO dual: only one blocking constraint?' was applied 886 times.
  - rule 'TODO dual: tighten at most one' was applied 8 times.
  - rule 'TODO linear inclusion: superset is equality' was applied 112 times.
  - rule 'affine: new relation' was applied 36 times.
  - rule 'at_most_one: removed literals' was applied 51 times.
  - rule 'at_most_one: size one' was applied 50 times.
  - rule 'at_most_one: transformed into max clique' was applied 2 times.
  - rule 'bool_or: implications' was applied 62 times.
  - rule 'bool_or: only one literal' was applied 12 times.
  - rule 'bool_or: removed enforcement literal' was applied 605 times.
  - rule 'deductions: 896 stored' was applied 1 time.
  - rule 'duplicate: merged rhs of linear constraint' was applied 10 times.
  - rule 'duplicate: removed constraint' was applied 11 times.
  - rule 'duplicate: removed enforced constraint' was applied 6 times.
  - rule 'enforcement: false literal' was applied 33 times.
  - rule 'enforcement: true literal' was applied 8 times.
  - rule 'exactly_one: removed literals' was applied 32 times.
  - rule 'exactly_one: satisfied' was applied 3 times.
  - rule 'exactly_one: singleton' was applied 3 times.
  - rule 'exactly_one: size two' was applied 29 times.
  - rule 'exactly_one: x and not(x)' was applied 5 times.
  - rule 'incompatible linear: add implication' was applied 132 times.
  - rule 'linear + amo: empty after processing' was applied 6 times.
  - rule 'linear + amo: extracted enforcement literal' was applied 62 times.
  - rule 'linear + amo: trivial linear constraint' was applied 1 time.
  - rule 'linear inclusion: redundant containing constraint' was applied 3 times.
  - rule 'linear inclusion: redundant included constraint' was applied 3 times.
  - rule 'linear inclusion: sparsify superset' was applied 1 time.
  - rule 'linear matrix: common vertical rectangle' was applied 6 times.
  - rule 'linear1: x in domain' was applied 26 times.
  - rule 'linear2: convert ax + by != cte to clauses' was applied 256 times.
  - rule 'linear2: convert implied ax + by == cte to clauses' was applied 126 times.
  - rule 'linear2: implied ax + by = cte has only one solution' was applied 8 times.
  - rule 'linear: always true' was applied 424 times.
  - rule 'linear: coefficient strengthening by increasing it' was applied 1 time.
  - rule 'linear: empty' was applied 1 time.
  - rule 'linear: extracted at most one (max)' was applied 1 time.
  - rule 'linear: fixed or dup variables' was applied 879 times.
  - rule 'linear: negative clause' was applied 1'303 times.
  - rule 'linear: negative reified and' was applied 78 times.
  - rule 'linear: never in domain' was applied 6 times.
  - rule 'linear: positive at most one' was applied 38 times.
  - rule 'linear: reduced variable domains' was applied 7 times.
  - rule 'linear: remapped using affine relations' was applied 22 times.
  - rule 'new_bool: integer encoding' was applied 18 times.
  - rule 'presolve: 76 unused variables removed.' was applied 1 time.
  - rule 'presolve: iteration' was applied 3 times.
  - rule 'probing: bool_or reduced to implication' was applied 26 times.
  - rule 'probing: simplified clauses' was applied 36 times.
  - rule 'setppc: bool_or in at_most_one' was applied 7 times.
  - rule 'setppc: removed dominated constraints' was applied 96 times.
  - rule 'variables: add encoding constraint' was applied 18 times.

Presolved satisfaction model '': (model_fingerprint: 0xf2e0f4c88a0d334)
#Variables: 501 (433 primary variables)
  - 495 Booleans in [0,1]
  - 6 in [0,2]
#kAtMostOne: 58 (#literals: 245)
#kBoolAnd: 280 (#enforced: 280) (#literals: 743)
#kBoolAndClauses: 73 (#enforced: 73 #multi: 73) (#literals: 358)
#kBoolOr: 1'550 (#literals: 4'723)
#kExactlyOne: 53 (#literals: 209)
#kLinear1: 36 (#enforced: 36)
#kLinearN: 801 (#enforced: 120) (#terms: 5'536)
[Symmetry] Graph for symmetry has 4'118 nodes and 13'235 arcs.
[Symmetry] Symmetry computation done. time: 0.00087667 dtime: 0.00133363

Preloading model.
#Model   0.10s var:501/501 constraints:2851/2851

Starting search at 0.10s with 4 workers.
3 full problem subsolvers: [default_lp, max_lp, no_lp]
1 first solution subsolver: [fj]
2 interleaved subsolvers: [feasibility_pump, rins/rens]
2 helper subsolvers: [neighborhood_helper, synchronization_agent]

#Model 180.85s var:500/501 constraints:2849/2851
#Model 2221.26s var:499/501 constraints:2831/2851
#Model 4882.39s var:498/501 constraints:2811/2851
#Model 5494.68s var:497/501 constraints:2791/2851
#Model 5799.57s var:496/501 constraints:2771/2851
#Model 5902.04s var:493/501 constraints:2768/2851
#Model 5987.17s var:492/501 constraints:2750/2851
#Model 5987.84s var:491/501 constraints:2731/2851
#Model 6046.54s var:490/501 constraints:2711/2851
#Model 6176.77s var:487/501 constraints:2706/2851
#Model 6242.19s var:486/501 constraints:2688/2851
#Model 6248.51s var:485/501 constraints:2670/2851
#Model 6249.74s var:483/501 constraints:2634/2851
#Model 6250.54s var:478/501 constraints:2594/2851
#Model 6251.26s var:462/501 constraints:2355/2851
#Model 6251.99s var:461/501 constraints:2337/2851
#Model 6252.17s var:434/501 constraints:2113/2851
#Done  6252.30s no_lp

Task timing                   n [     min,      max]      avg      dev     time         n [     min,      max]      avg      dev    dtime
        'default_lp':         1 [   1.74h,    1.74h]    1.74h   0.00ns    1.74h         2 [  2.35ms,    1.62h]   48.75m   48.75m    1.62h
  'feasibility_pump':     30987 [819.60us, 113.82ms]   1.64ms 728.16us   50.93s     30986 [285.59us,  95.31ms] 290.30us 539.79us    9.00s
                'fj':     23104 [103.47ms, 350.61ms] 134.12ms   9.42ms   51.64m     23104 [100.00ms, 100.14ms] 100.02ms  12.89us   38.51m
            'max_lp':         1 [   1.74h,    1.74h]    1.74h   0.00ns    1.74h         2 [ 94.56ms,    2.16h]    1.08h    1.08h    2.16h
             'no_lp':         1 [   1.74h,    1.74h]    1.74h   0.00ns    1.74h         2 [  2.14ms,    3.52h]    1.76h    1.76h    3.52h
         'rins/rens':     29621 [860.94us, 254.01ms] 104.61ms  38.32ms   51.64m     29614 [167.78us, 100.51ms]  68.12ms  37.14ms   33.62m

Search stats     Bools   Conflicts    Branches  Restarts  BacktrackToRoot   Backtrack     BoolPropag  IntegerPropag
  'default_lp':    495     570'125  10'868'781     2'917        1'596'036   2'615'587    127'737'372    144'648'946
      'max_lp':    495     407'413  13'558'337     1'648        1'997'849   2'958'492    164'470'840    189'112'141
       'no_lp':    495  42'593'266  53'237'227   126'433          715'047  42'840'462  3'698'462'408    936'022'178

SAT formula      Fixed  Equiv  Total  VarLeft  BinaryClauses  PermanentClauses  TemporaryClauses
  'default_lp':     14      1    495      480          2'850            42'472             4'905
      'max_lp':     14      1    495      480          2'832            43'451             6'369
       'no_lp':    213      1    495      281          2'794            45'838             4'099

SAT stats        ClassicMinim   LitRemoved  LitRemovedBinary   LitLearned  LitForgotten    Subsumed
  'default_lp':       508'420    6'289'055         3'320'227   16'324'082    10'870'559     207'927
      'max_lp':       358'622    4'861'903         2'096'734    9'681'097     5'999'664     131'449
       'no_lp':    38'701'858  641'718'802       184'539'573  961'984'385   733'087'762  13'078'443

Vivification       Clauses   Decisions  LitTrue  Subsumed  LitRemoved  DecisionReused  Conflicts
  'default_lp':  1'564'967   9'688'377        3    40'847     409'374         508'058      3'548
      'max_lp':  1'896'398  12'411'328        0    44'344     455'017         604'441      3'844
       'no_lp':    449'476   3'858'638        0    35'367     462'709         108'178      1'758

Clause deletion    at_true  l_and_not(l)  to_binary  sub_conflict  sub_extra  sub_decisions  sub_eager  sub_vivify  sub_probing  sub_inpro  blocked  eliminated   forgotten    promoted   conflicts
    'default_lp':   24'479             0         33       204'856      1'227          8'075      3'071      40'847       17'385     49'789        0           0     309'743   1'116'720     570'125
        'max_lp':   30'673             0         30       129'764        896          4'432      1'685      44'344       19'200     43'596        0           0     215'063     845'330     407'413
         'no_lp':  194'440             0        165    12'835'643     69'269        642'811    242'800      35'367       37'113    295'916        0           0  28'202'208  94'600'431  42'593'266

Lp stats         Component  Iterations  AddedCuts  OPTIMAL  DUAL_F.  DUAL_U.
  'default_lp':          1  73'087'896    187'842  795'628        0  468'270
      'max_lp':          1  33'849'949    225'062  115'152  360'944   89'640

Lp dimension        Final dimension of first component
  'default_lp':    241 rows, 349 columns, 2295 entries
      'max_lp':  1155 rows, 501 columns, 10659 entries

Lp debug         CutPropag  CutEqPropag   Adjust  Overflow        Bad  BadScaling
  'default_lp':          0          137  468'266         0  5'700'986           0
      'max_lp':          0           93   89'637         0  7'251'224           0

Lp pool          Constraints  Updates  Simplif  Merged  Shortened  Split  Strengthened        Cuts/Call
  'default_lp':       10'611   35'068        0       0        410      0             0  187'842/242'461
      'max_lp':       12'228   66'995    6'626      11      6'986    562         4'775  225'062/339'283

Lp Cut            default_lp   max_lp
          CG_FF:       2'069      145
           CG_K:         978       20
          CG_KL:         850        9
           CG_R:       2'141       73
          CG_RB:          88        2
         CG_RBP:          40        -
         Clique:           -      862
             IB:         206       57
       MIR_1_FF:         898    1'680
        MIR_1_K:         158      114
       MIR_1_KL:         589      191
        MIR_1_R:         829    1'183
       MIR_1_RB:           5        6
      MIR_1_RBP:           6        -
      MIR_1_RLT:           -   21'070
       MIR_2_FF:       1'646    2'132
        MIR_2_K:         332      430
       MIR_2_KL:         747      301
        MIR_2_R:       2'049    2'421
       MIR_2_RB:          32        9
      MIR_2_RBP:          50        2
       MIR_3_FF:         646      534
        MIR_3_K:         101       91
       MIR_3_KL:         205       48
        MIR_3_R:         882      827
       MIR_3_RB:           7        1
      MIR_3_RBP:           7        2
       MIR_4_FF:         214      165
        MIR_4_K:          54       41
       MIR_4_KL:          55       12
        MIR_4_R:         666      670
       MIR_4_RB:           5        1
      MIR_4_RBP:           9        2
       MIR_5_FF:         101       64
        MIR_5_K:          37       15
       MIR_5_KL:          10        2
        MIR_5_R:         463      557
       MIR_5_RB:           4        2
      MIR_5_RBP:           8        1
       MIR_6_FF:          47       35
        MIR_6_K:          22        3
       MIR_6_KL:           4        1
        MIR_6_R:         338      541
       MIR_6_RB:           5        3
      MIR_6_RBP:           7        -
   ZERO_HALF_FF:         768      948
    ZERO_HALF_K:         208      100
   ZERO_HALF_KL:         196       26
    ZERO_HALF_R:     168'955  189'439
   ZERO_HALF_RB:          52       19
  ZERO_HALF_RBP:          53      205

LNS stats       Improv/Calls  Closed  Difficulty  TimeLimit
  'rins/rens':   29616/29616     50%    7.93e-01       0.10

LS stats                                    Batches  Restarts/Perturbs    LinMoves    GenMoves  CompoundMoves  Bactracks  WeightUpdates  ScoreComputed
                             'fj_restart':    1'781                294  61'327'402           0              0          0     44'973'007    104'944'240
                    'fj_restart_compound':    1'683                277           0  20'228'434        823'347  9'701'961         55'666    318'157'925
                'fj_restart_compound_obj':    1'258                292           0  15'063'335        821'685  7'120'197         34'934    237'212'781
            'fj_restart_compound_perturb':    1'327                278           0  15'838'565        733'701  7'551'878         42'122    250'052'331
        'fj_restart_compound_perturb_obj':    1'458                266           0  17'480'523        744'592  8'367'464         47'500    275'082'510
                       'fj_restart_decay':      728                260  25'969'188           0              0          0      1'044'988     15'250'679
              'fj_restart_decay_compound':    1'162                277           0  15'068'067      2'457'544  6'304'556         15'826    222'294'891
          'fj_restart_decay_compound_obj':    1'253                267           0  16'501'381      2'682'623  6'908'670         17'040    239'793'366
      'fj_restart_decay_compound_perturb':    1'377                274           0  18'134'221      2'955'499  7'588'664         18'673    263'725'113
  'fj_restart_decay_compound_perturb_obj':      959                262           0  12'308'130      1'991'927  5'157'433         13'050    182'992'087
                   'fj_restart_decay_obj':    1'508                303  53'904'058           0              0          0      2'165'475     31'604'097
               'fj_restart_decay_perturb':    1'621                301  57'922'282           0              0          0      2'325'543     33'984'139
           'fj_restart_decay_perturb_obj':      928                264  33'126'457           0              0          0      1'331'387     19'438'467
                         'fj_restart_obj':    2'464                254  87'951'140           0              0          0     60'483'341    144'831'655
                     'fj_restart_perturb':    1'628                293  56'174'803           0              0          0     40'256'794     88'277'394
                 'fj_restart_perturb_obj':    1'969                259  67'642'261           0              0          0     49'525'948    111'048'231

Solution repositories    Added  Queried  Synchro
    'alternative_path':      0        0        0
      'best_solutions':      0        0        0
   'fj solution hints':  4'413        0    4'413
        'lp solutions':  4'474   29'621    4'466
                'pump':      0        0

Improving bounds shared    Num  Sym
            'default_lp':    2    0
                'max_lp':    1    0
                 'no_lp':  150    0

Clauses shared    #Exported  #Imported  #BinaryRead  #BinaryTotal
   'default_lp':      6'831    137'715          658           872
       'max_lp':      7'520    133'883          648           872
        'no_lp':    136'647     15'150          872           872

LRAT_status: NA
CpSolverResponse summary:
status: INFEASIBLE
objective: NA
best_bound: NA
integers: 361
booleans: 495
conflicts: 42593266
branches: 53237227
propagations: 3698462408
integer_propagations: 936022178
restarts: 126433
lp_iterations: 0
walltime: 6252.32
usertime: 6252.32
deterministic_time: 30630.7
gap_integral: 0

{
  "board_size": 22,
  "parity_proved": 0,
  "target": 34,
  "child_id": 2272,
  "child_count": 2640,
  "partition": "unknown_pair_x_diag_plus_twos_x_diag_minus_twos",
  "build_seconds": 0.08043313026428223,
  "workers": 4,
  "requested_seed": 2026074472,
  "effective_seed": 2026074472,
  "main_diagonal_pair": [
    5,
    15
  ],
  "pair_index": 94,
  "diag_plus_twos": 16,
  "diag_minus_twos": 16,
  "pair_excess": 3,
  "residual_certificate_slack": 109,
  "analytic_minimum_line_defect": 24,
  "analytic_defect_details": {
    "row_costs": {
      "12": 6,
      "13": 3,
      "14": 0,
      "15": 0,
      "16": 0,
      "17": 0
    },
    "column_costs": {
      "12": 6,
      "13": 3,
      "14": 0,
      "15": 0,
      "16": 0,
      "17": 0
    },
    "plus_cost": 24,
    "minus_cost": 0,
    "row_column_minimum": 0
  },
  "maximal_line_constraints": 2455,
  "analytic_infeasible": false,
  "allowed_points": 242,
  "status": "INFEASIBLE",
  "proof_method": "cp_sat_all_lines_with_certificate_profile_cuts",
  "elapsed_seconds": 6252.324844837189,
  "branches": 53237227,
  "conflicts": 42593266
}
